(set-logic ALL)
(set-option :produce-models true)
(define-fun-rec str.toLower ((x String)) String
  (ite (= x "")
      ""
      (let ((Head (str.at x 0)))
        (str.++ 
          (ite (and (<= 65 (str.to_code Head)) 
                     (<= (str.to_code Head) 90))
               (str.from_code (+ (str.to_code Head) 32))
               Head)
          (str.toLower (str.substr x 1 (- (str.len x) 1)))))))
(declare-fun sym205 () String)
(declare-fun sym404 () String)
(declare-fun sym528 () String)
(declare-fun sym606 () String)
(declare-fun sym440 () String)
(declare-fun sym484 () String)
(declare-fun sym562 () String)
(declare-fun sym289 () String)
(declare-fun sym686 () String)
(declare-fun sym642 () String)
(declare-fun sym323 () String)
(declare-fun sym160 () String)
(declare-fun sym414 () String)
(declare-fun sym338 () String)
(declare-fun sym175 () String)
(declare-fun sym494 () String)
(declare-fun sym450 () String)
(declare-fun sym374 () String)
(declare-fun sym254 () String)
(declare-fun sym299 () String)
(declare-fun sym696 () String)
(declare-fun sym652 () String)
(declare-fun sym135 () String)
(declare-fun sym576 () String)
(declare-fun sym215 () String)
(declare-fun sym348 () String)
(declare-fun sym20 () String)
(declare-fun sym504 () String)
(declare-fun sym384 () String)
(declare-fun sym264 () String)
(declare-fun sym662 () String)
(declare-fun sym586 () String)
(declare-fun sym542 () String)
(declare-fun sym225 () String)
(declare-fun sym622 () String)
(declare-fun sym185 () String)
(declare-fun sym460 () String)
(declare-fun sym239 () String)
(declare-fun sym518 () String)
(declare-fun sym430 () String)
(declare-fun sym596 () String)
(declare-fun sym552 () String)
(declare-fun sym113 () String)
(declare-fun sym279 () String)
(declare-fun sym676 () String)
(declare-fun sym313 () String)
(declare-fun sym632 () String)
(declare-fun sym358 () String)
(declare-fun sym150 () String)
(declare-fun sym470 () String)
(declare-fun sym195 () String)
(declare-fun sym394 () String)

(assert (not (= (str.toLower sym175 )(str.toLower "name" ))))
(assert (not (= (str.toLower sym404 )(str.toLower "length" ))))
(assert (not (= (str.toLower sym686 )(str.toLower "description" ))))
(assert (not (= (str.toLower sym279 )(str.toLower "name" ))))
(assert (not (= (str.toLower sym348 )(str.toLower "description" ))))
(assert (not (= (str.toLower sym596 )(str.toLower "type" ))))
(assert (not (= (str.toLower sym622 )(str.toLower "name" ))))
(assert (not (= (str.toLower sym552 )(str.toLower "description" ))))
(assert (not (= (str.toLower sym696 )(str.toLower "field" ))))
(assert (not (= (str.toLower sym652 )(str.toLower "length" ))))
(assert (not (= (str.toLower sym676 )(str.toLower "name" ))))
(assert (= (str.toLower sym225 )(str.toLower "table" )))
(assert (not (= (str.toLower sym494 )(str.toLower "description" ))))
(assert (not (= (str.toLower sym185 )(str.toLower "description" ))))
(assert (not (= (str.toLower sym20 )"sql" )))
(assert (not (= (str.toLower sym215 )(str.toLower "description" ))))
(assert (not (= (str.toLower sym642 )(str.toLower "type" ))))
(assert (= (str.toLower sym264 )(str.toLower "description" )))
(assert (not (= (str.toLower sym576 )(str.toLower "name" ))))
(assert (not (= (str.toLower sym586 )(str.toLower "description" ))))
(assert (not (= (str.toLower sym440 )(str.toLower "description" ))))
(assert (= (str.toLower sym160 )(str.toLower "description" )))
(assert (not (= (str.toLower sym313 )(str.toLower "name" ))))
(assert (not (= (str.toLower sym338 )(str.toLower "name" ))))
(assert (not (= (str.toLower sym394 )(str.toLower "type" ))))
(assert (= (str.toLower sym528 )(str.toLower "description" )))
(assert (not (= (str.toLower sym450 )(str.toLower "type" ))))
(assert (= (str.toLower sym470 )(str.toLower "option" )))
(assert (not (= (str.toLower sym484 )(str.toLower "name" ))))
(assert (not (= (str.toLower sym254 )(str.toLower "name" ))))
(assert (not (= (str.toLower sym632 )(str.toLower "description" ))))
(assert (= (str.toLower sym20 )"html" ))
(assert (= (str.toLower sym323 )(str.toLower "description" )))
(assert (= (str.toLower sym239 )(str.toLower "name" )))
(assert (= (str.toLower sym606 )(str.toLower "length" )))
(assert (= (str.toLower sym562 )(str.toLower "type" )))
(assert (not (= (str.toLower sym384 )(str.toLower "description" ))))
(assert (= (str.toLower sym414 )(str.toLower "option" )))
(assert (= (str.toLower sym358 )(str.toLower "type" )))
(assert (= (str.toLower sym662 )(str.toLower "option" )))
(assert (not (= (str.toLower sym289 )(str.toLower "description" ))))
(assert (not (= (str.toLower sym205 )(str.toLower "name" ))))
(assert (not (= (str.toLower sym430 )(str.toLower "name" ))))
(assert (= (str.toLower sym113 )(str.toLower "database" )))
(assert (not (= (str.toLower sym518 )(str.toLower "name" ))))
(assert (not (= (str.toLower sym460 )(str.toLower "length" ))))
(assert (= (str.toLower sym299 )(str.toLower "field" )))
(assert (not (= (str.toLower sym542 )(str.toLower "name" ))))
(assert (not (= (str.toLower sym195 )(str.toLower "table" ))))
(assert (not (= (str.toLower sym150 )(str.toLower "name" ))))
(assert (= (str.toLower sym135 )(str.toLower "name" )))
(assert (= (str.toLower sym504 )(str.toLower "field" )))
(assert (not (= (str.toLower sym374 )(str.toLower "name" ))))
(check-sat)
(get-model)
(exit)
